FLOW,20,5,7
0,71,1,8,4,84,2,25,3,54
0,72,1,12,4,56,2,38,3,89
0,40,1,52,3,51,2,4,4,82
0,98,1,56,2,80,3,2,4,70
0,45,1,55,3,62,2,35,4,44
0,16,1,48,4,79,2,16,3,76
1,28,0,84,3,6,4,77,2,91
1,67,0,52,4,11,2,88,3,35
1,50,0,45,2,92,3,49,4,70
1,21,0,39,4,25,2,82,3,91
0,53,1,80,4,29,3,11,2,97
0,8,1,17,2,51,3,64,4,21
1,49,0,44,4,78,3,97,2,5
1,51,0,15,3,47,2,85,4,92
1,32,0,87,2,41,4,56,3,52
0,77,1,30,2,60,3,13,4,87
1,15,0,62,3,48,4,83,2,64
0,100,1,31,3,77,2,95,4,18
0,64,1,39,2,86,4,22,3,80
1,78,0,62,2,41,4,6,3,13
